(declare-fun x_2 () Real)
(declare-fun x_1 () Real)
(assert (and (or (= x_1 0.0)
         (= x_1 (- 1.0))
         (= x_1 2.0)
         (= x_1 (- 3.0))
         (= x_1 4.0)
         (= x_1 (- 5.0))
         (= x_1 6.0)
         (= x_1 (- 7.0))
         (= x_1 8.0)
         (= x_1 (- 9.0))
         (= x_1 10.0)
         (= x_1 (- 11.0))
         (= x_1 12.0)
         (= x_1 (- 13.0))
         (= x_1 14.0)
         (= x_1 (- 15.0))
         (= x_1 16.0)
         (= x_1 (- 17.0))
         (= x_1 18.0)
         (= x_1 (- 19.0))
         (= x_1 20.0)
         (= x_1 (- 21.0))
         (= x_1 22.0)
         (= x_1 (- 23.0))
         (= x_1 24.0)
         (= x_1 (- 25.0))
         (= x_1 26.0)
         (= x_1 (- 27.0))
         (= x_1 28.0)
         (= x_1 (- 29.0)))
     (distinct (+ (* (/ 6987.0 100.0) x_1) (* (/ 4909.0 50.0) x_1)) 0.0)
     (distinct (+ (* (/ 381.0 5.0) x_1) (* (/ 1617.0 25.0) x_2)) 0.0)
     (distinct (+ (* (/ 6247.0 100.0) x_1) (* (/ 2263.0 50.0) x_2)) 0.0)
     (distinct (+ (* (/ 2909.0 100.0) x_1) (* (- (/ 6399.0 100.0)) x_2)) 0.0)
     (distinct (+ (* (/ 3373.0 50.0) x_1) (* (/ 1879.0 20.0) x_2)) 0.0)
     (distinct (+ (* (- (/ 8571.0 100.0)) x_1) (* (/ 636.0 25.0) x_1)) 0.0)
     (distinct (+ (* (/ 1979.0 20.0) x_1) (* (/ 2643.0 100.0) x_1)) 0.0)
     (distinct (+ (* (/ 5471.0 100.0) x_1) (* (/ 127.0 2.0) x_2)) 0.0)
     (distinct (+ (* (- (/ 8859.0 100.0)) x_1) (* (- (/ 9463.0 100.0)) x_2))
               0.0)
     (distinct (+ (* (/ 547.0 10.0) x_1) (* (- (/ 3139.0 100.0)) x_2)) 0.0)
     (distinct (+ (* (/ 251.0 10.0) x_1) (* (/ 4847.0 50.0) x_1)) 0.0)
     (distinct (+ (* (- (/ 7671.0 100.0)) x_1) (* (/ 2237.0 100.0) x_2)) 0.0)
     (distinct (+ (* (/ 113.0 5.0) x_1) (* (/ 519.0 25.0) x_1)) 0.0)
     (distinct (+ (* (- (/ 657.0 25.0)) x_1) (* (- (/ 123.0 2.0)) x_2)) 0.0)
     (distinct (+ (* (/ 729.0 25.0) x_1) (* (- (/ 1133.0 25.0)) x_2)) 0.0)
     (distinct (+ (* (/ 873.0 100.0) x_1) (* (- (/ 5793.0 100.0)) x_1)) 0.0)
     (distinct (+ (* (- (/ 8027.0 100.0)) x_1) (* (/ 7021.0 100.0) x_1)) 0.0)
     (distinct (+ (* (/ 1866.0 25.0) x_1) (* (/ 186.0 5.0) x_2)) 0.0)
     (distinct (+ (* (- (/ 3147.0 50.0)) x_1) (* (/ 127.0 5.0) x_1)) 0.0)
     (distinct (+ (* (- (/ 5537.0 100.0)) x_1) (* (- (/ 125.0 2.0)) x_1)) 0.0)
     (distinct (+ (* (/ 1308.0 25.0) x_1) (* (- (/ 2377.0 25.0)) x_1)) 0.0)
     (distinct (+ (* (/ 9369.0 100.0) x_1) (* (/ 2031.0 100.0) x_1)) 0.0)
     (distinct (+ (* (/ 2073.0 100.0) x_1) (* (/ 303.0 50.0) x_2)) 0.0)
     (distinct (+ (* (- (/ 399.0 25.0)) x_1) (* (/ 3461.0 100.0) x_2)) 0.0)
     (distinct (+ (* (/ 6481.0 100.0) x_1) (* (/ 3331.0 50.0) x_2)) 0.0)
     (distinct (+ (* (/ 7801.0 100.0) x_1) (* (- (/ 1113.0 25.0)) x_2)) 0.0)
     (distinct (+ (* (- (/ 99.0 10.0)) x_1) (* (/ 317.0 25.0) x_2)) 0.0)
     (distinct (+ (* (- (/ 7973.0 100.0)) x_1) (* (/ 1.0 25.0) x_2)) 0.0)
     (distinct (+ (* (/ 2907.0 50.0) x_1) (* (- (/ 3457.0 100.0)) x_2)) 0.0)
     (distinct (+ (* (/ 719.0 25.0) x_1) (* (/ 191.0 20.0) x_2)) 0.0)))
